\ LP format - for model browsing. Use MPS format to capture full model detail.
Minimize
  C36(1)
Subject To
 c0: B0(11) = 1
 c1: B1(10) + B2(11) = 1
 c2: B3(13) + B4(11) = 1
 c3: B5(10) = 1
 c4: B6(12) + B7(12) = 1
 c5: B8(10) + B9(10) = 1
 c6: - 1e+09 B0(11) + C26(11) <= 0
 c7: - 1e+09 B1(10) + C27(11) <= 0
 c8: - 1e+09 B2(11) + C28(13) <= 0
 c9: - 1e+09 B3(13) + C29(13) <= 0
 c10: - 1e+09 B4(11) + C30(11) <= 0
 c11: - 1e+09 B5(10) + C31(11) <= 0
 c12: - 1e+09 B6(12) + C32(12) <= 0
 c13: - 1e+09 B7(12) + C33(12) <= 0
 c14: - 1e+09 B8(10) + C34(12) <= 0
 c15: - 1e+09 B9(10) + C35(12) <= 0
 c16: - 43 B0(11) - C26(11) + C27(11) + C28(13) >= 0
 c17: - 1.000000043e+09 B0(11) - 1e+09 B1(10) - C26(11) + C27(11) + C28(13)
   >= -1.999999993e+09
 c18: - 63 B3(13) - 53 B4(11) - C29(13) - C30(11) + C31(11) >= 0
 c19: - 63 B3(13) - 1.000000053e+09 B4(11) - 1e+09 B5(10) - C29(13)
   - C30(11) + C31(11) >= -1.999999993e+09
 c20: - 125 B6(12) - 135 B7(12) - C32(12) - C33(12) + C34(12) + C35(12)
   >= 0
 c21: - 1.000000125e+09 B6(12) - 135 B7(12) - 1e+09 B8(10) - C32(12)
   - C33(12) + C34(12) + C35(12) >= -1.999999991e+09
 c22: - 125 B6(12) - 1.000000135e+09 B7(12) - 1e+09 B9(10) - C32(12)
   - C33(12) + C34(12) + C35(12) >= -1.999999991e+09
 c23: - 1e+09 B0(11) - 1e+09 B3(13) - 1e+09 B10(2) + C26(11) - C29(13)
   >= -2.99999993e+09
 c24: - 1e+09 B0(11) - 1e+09 B3(13) + 1e+09 B10(2) - C26(11) + C29(13)
   >= -1.999999948e+09
 c25: - 1e+09 B0(11) - 1e+09 B6(12) - 1e+09 B11(2) + C26(11) - C32(12)
   >= -2.999999867e+09
 c26: - 1e+09 B0(11) - 1e+09 B6(12) + 1e+09 B11(2) - C26(11) + C32(12)
   >= -1.999999949e+09
 c27: - 1e+09 B0(11) - 1e+09 B8(10) - 1e+09 B12(2) + C26(11) - C34(12)
   >= -2.999999949e+09
 c28: - 1e+09 B0(11) - 1e+09 B8(10) + 1e+09 B12(2) - C26(11) + C34(12)
   >= -1.99999995e+09
 c29: - 1e+09 B1(10) - 1e+09 B3(13) - 1e+09 B13(2) + C27(11) - C29(13)
   >= -2.99999993e+09
 c30: - 1e+09 B1(10) - 1e+09 B3(13) + 1e+09 B13(2) - C27(11) + C29(13)
   >= -1.999999905e+09
 c31: - 1e+09 B2(11) - 1e+09 B4(11) - 1e+09 B14(2) + C28(13) - C30(11)
   >= -2.999999941e+09
 c32: - 1e+09 B2(11) - 1e+09 B4(11) + 1e+09 B14(2) - C28(13) + C30(11)
   >= -1.999999896e+09
 c33: - 1e+09 B2(11) - 1e+09 B5(10) - 1e+09 B15(2) + C28(13) - C31(11)
   >= -2.999999919e+09
 c34: - 1e+09 B2(11) - 1e+09 B5(10) + 1e+09 B15(2) - C28(13) + C31(11)
   >= -1.999999899e+09
 c35: - 1e+09 B1(10) - 1e+09 B6(12) - 1e+09 B16(2) + C27(11) - C32(12)
   >= -2.999999867e+09
 c36: - 1e+09 B1(10) - 1e+09 B6(12) + 1e+09 B16(2) - C27(11) + C32(12)
   >= -1.999999903e+09
 c37: - 1e+09 B2(11) - 1e+09 B7(12) - 1e+09 B17(2) + C28(13) - C33(12)
   >= -2.999999858e+09
 c38: - 1e+09 B2(11) - 1e+09 B7(12) + 1e+09 B17(2) - C28(13) + C33(12)
   >= -1.999999896e+09
 c39: - 1e+09 B1(10) - 1e+09 B8(10) - 1e+09 B18(2) + C27(11) - C34(12)
   >= -2.99999995e+09
 c40: - 1e+09 B1(10) - 1e+09 B8(10) + 1e+09 B18(2) - C27(11) + C34(12)
   >= -1.999999906e+09
 c41: - 1e+09 B2(11) - 1e+09 B9(10) - 1e+09 B19(2) + C28(13) - C35(12)
   >= -2.999999932e+09
 c42: - 1e+09 B2(11) - 1e+09 B9(10) + 1e+09 B19(2) - C28(13) + C35(12)
   >= -1.999999899e+09
 c43: - 1e+09 B3(13) - 1e+09 B6(12) - 1e+09 B20(2) + C29(13) - C32(12)
   >= -2.999999869e+09
 c44: - 1e+09 B3(13) - 1e+09 B6(12) + 1e+09 B20(2) - C29(13) + C32(12)
   >= -1.99999993e+09
 c45: - 1e+09 B4(11) - 1e+09 B7(12) - 1e+09 B21(2) + C30(11) - C33(12)
   >= -2.999999857e+09
 c46: - 1e+09 B4(11) - 1e+09 B7(12) + 1e+09 B21(2) - C30(11) + C33(12)
   >= -1.99999994e+09
 c47: - 1e+09 B3(13) - 1e+09 B8(10) - 1e+09 B22(2) + C29(13) - C34(12)
   >= -2.999999949e+09
 c48: - 1e+09 B3(13) - 1e+09 B8(10) + 1e+09 B22(2) - C29(13) + C34(12)
   >= -1.99999993e+09
 c49: - 1e+09 B4(11) - 1e+09 B9(10) - 1e+09 B23(2) + C30(11) - C35(12)
   >= -2.99999993e+09
 c50: - 1e+09 B4(11) - 1e+09 B9(10) + 1e+09 B23(2) - C30(11) + C35(12)
   >= -1.999999941e+09
 c51: - 1e+09 B5(10) - 1e+09 B7(12) - 1e+09 B24(2) + C31(11) - C33(12)
   >= -2.999999857e+09
 c52: - 1e+09 B5(10) - 1e+09 B7(12) + 1e+09 B24(2) - C31(11) + C33(12)
   >= -1.99999992e+09
 c53: - 1e+09 B5(10) - 1e+09 B9(10) - 1e+09 B25(2) + C31(11) - C35(12)
   >= -2.999999931e+09
 c54: - 1e+09 B5(10) - 1e+09 B9(10) + 1e+09 B25(2) - C31(11) + C35(12)
   >= -1.99999992e+09
 c55: C26(11) >= 0
 c56: C27(11) >= 0
 c57: C28(13) >= 0
 c58: C29(13) >= 0
 c59: C30(11) >= 0
 c60: C31(11) >= 0
 c61: C32(12) >= 0
 c62: C33(12) >= 0
 c63: C34(12) >= 0
 c64: C35(12) >= 0
 c65: - 43 B0(11) - 87 B1(10) - 95 B2(11) - 63 B3(13) - 53 B4(11)
   - 73 B5(10) - 125 B6(12) - 135 B7(12) - 43 B8(10) - 61 B9(10) - C26(11)
   - C27(11) - C28(13) - C29(13) - C30(11) - C31(11) - C32(12) - C33(12)
   - C34(12) - C35(12) + C36(1) = 0
Bounds
Binaries
 B0(11) B1(10) B2(11) B3(13) B4(11) B5(10) B6(12) B7(12) B8(10) B9(10)
 B10(2) B11(2) B12(2) B13(2) B14(2) B15(2) B16(2) B17(2) B18(2) B19(2)
 B20(2) B21(2) B22(2) B23(2) B24(2) B25(2)
End
